20 20
30 18 1
5 13 1
19 33 1
22 17 1
9 18 1
24 34 1
16 1 1
15 9 1
31 19 1
11 4 1
23 19 1
4 24 1
9 27 1
33 13 1
15 13 1
9 34 1
10 27 1
28 22 1
11 26 1
25 25 1
40 40 
40 40 
40 40 
40 40 
40 40 
40 40 
40 40 
40 40 
40 40 
40 40 
40 40 
40 40 
40 40 
40 40 
40 40 
40 40 
40 40 
40 40 
40 40 
40 40 
